c gencount --qnf --enable 3
c $Id: gencount.c,v 1.19 2003/11/17 21:14:59 biere Exp $
p cnf 91 232
e 49 50 51 52 53 54 55 56 57 58 59 60 61 62 63 64 81 82 83 84 85 86 87 88 0
r 0.754 91 0
e 33 34 35 36 37 38 39 40 41 42 43 44 45 46 47 48 73 74 75 76 77 78 79 80 0
r 0.055 90 0
e 17 18 19 20 21 22 23 24 25 26 27 28 29 30 31 32 65 66 67 68 69 70 71 72 0
r 0.425 89 0
e 1 2 3 4 5 6 7 8 9 10 11 12 13 14 15 16 0
-91 -33 49 0
-91 33 -49 0
-91 -34 50 0
-91 34 -50 0
-91 -35 51 0
-91 35 -51 0
-91 -36 52 0
-91 36 -52 0
-91 -37 53 0
-91 37 -53 0
-91 -38 54 0
-91 38 -54 0
-91 -39 55 0
-91 39 -55 0
-91 -40 56 0
-91 40 -56 0
-91 -41 81 0
-91 41 -81 0
-91 -42 82 0
-91 42 -82 0
-91 -43 83 0
-91 43 -83 0
-91 -44 84 0
-91 44 -84 0
-91 -45 85 0
-91 45 -85 0
-91 -46 86 0
-91 46 -86 0
-91 -47 87 0
-91 47 -87 0
-91 -48 88 0
-91 48 -88 0
91 -33 81 0
91 33 -81 0
91 -34 82 0
91 34 -82 0
91 -35 83 0
91 35 -83 0
91 -36 84 0
91 36 -84 0
91 -37 85 0
91 37 -85 0
91 -38 86 0
91 38 -86 0
91 -39 87 0
91 39 -87 0
91 -40 88 0
91 40 -88 0
91 -41 57 0
91 41 -57 0
91 -42 58 0
91 42 -58 0
91 -43 59 0
91 43 -59 0
91 -44 60 0
91 44 -60 0
91 -45 61 0
91 45 -61 0
91 -46 62 0
91 46 -62 0
91 -47 63 0
91 47 -63 0
91 -48 64 0
91 48 -64 0
-90 -17 33 0
-90 17 -33 0
-90 -18 34 0
-90 18 -34 0
-90 -19 35 0
-90 19 -35 0
-90 -20 36 0
-90 20 -36 0
-90 -21 37 0
-90 21 -37 0
-90 -22 38 0
-90 22 -38 0
-90 -23 39 0
-90 23 -39 0
-90 -24 40 0
-90 24 -40 0
-90 -25 73 0
-90 25 -73 0
-90 -26 74 0
-90 26 -74 0
-90 -27 75 0
-90 27 -75 0
-90 -28 76 0
-90 28 -76 0
-90 -29 77 0
-90 29 -77 0
-90 -30 78 0
-90 30 -78 0
-90 -31 79 0
-90 31 -79 0
-90 -32 80 0
-90 32 -80 0
90 -17 73 0
90 17 -73 0
90 -18 74 0
90 18 -74 0
90 -19 75 0
90 19 -75 0
90 -20 76 0
90 20 -76 0
90 -21 77 0
90 21 -77 0
90 -22 78 0
90 22 -78 0
90 -23 79 0
90 23 -79 0
90 -24 80 0
90 24 -80 0
90 -25 41 0
90 25 -41 0
90 -26 42 0
90 26 -42 0
90 -27 43 0
90 27 -43 0
90 -28 44 0
90 28 -44 0
90 -29 45 0
90 29 -45 0
90 -30 46 0
90 30 -46 0
90 -31 47 0
90 31 -47 0
90 -32 48 0
90 32 -48 0
-89 -1 17 0
-89 1 -17 0
-89 -2 18 0
-89 2 -18 0
-89 -3 19 0
-89 3 -19 0
-89 -4 20 0
-89 4 -20 0
-89 -5 21 0
-89 5 -21 0
-89 -6 22 0
-89 6 -22 0
-89 -7 23 0
-89 7 -23 0
-89 -8 24 0
-89 8 -24 0
-89 -9 65 0
-89 9 -65 0
-89 -10 66 0
-89 10 -66 0
-89 -11 67 0
-89 11 -67 0
-89 -12 68 0
-89 12 -68 0
-89 -13 69 0
-89 13 -69 0
-89 -14 70 0
-89 14 -70 0
-89 -15 71 0
-89 15 -71 0
-89 -16 72 0
-89 16 -72 0
89 -1 65 0
89 1 -65 0
89 -2 66 0
89 2 -66 0
89 -3 67 0
89 3 -67 0
89 -4 68 0
89 4 -68 0
89 -5 69 0
89 5 -69 0
89 -6 70 0
89 6 -70 0
89 -7 71 0
89 7 -71 0
89 -8 72 0
89 8 -72 0
89 -9 25 0
89 9 -25 0
89 -10 26 0
89 10 -26 0
89 -11 27 0
89 11 -27 0
89 -12 28 0
89 12 -28 0
89 -13 29 0
89 13 -29 0
89 -14 30 0
89 14 -30 0
89 -15 31 0
89 15 -31 0
89 -16 32 0
89 16 -32 0
-50 0
-54 0
-55 0
-56 0
-5 8 0
-5 4 0
5 -8 -4 0
-4 7 0
-4 3 0
4 -7 -3 0
-3 6 0
3 -6 0
-1 -16 8 4 0
-1 -16 -8 -4 0
-1 16 -8 4 0
-1 16 8 -4 0
-1 -15 7 3 0
-1 -15 -7 -3 0
-1 15 -7 3 0
-1 15 7 -3 0
-1 -14 -6 0
-1 14 6 0
1 -16 8 0
1 16 -8 0
1 -15 7 0
1 15 -7 0
1 -14 6 0
1 14 -6 0
-10 2 5 0
-2 10 0
10 -5 0
-13 16 0
-13 12 0
13 -16 -12 0
-12 15 0
-12 11 0
12 -15 -11 0
-11 14 0
11 -14 0
58 0
